\ENCODING=ISO-8859-1
\Problem name: monolithic.LP

Minimize
 OBJ01:  8.17285714 AMT00000200002001 + 7 AMT00000200001001
         - 8 AMT00000100002001 + 12 AMT00000100001001
Subject To
 CAP0001T001:   0.1666667 OP000003T001 + 0.000666667 OP000004T001
                - CAP0001BD00T001  = 0
 CAP0001T002:   0.1666667 OP000003T002 + 0.000666667 OP000004T002
                - CAP0001BD00T002  = 0
 CAP0001T003:   0.1666667 OP000003T003 + 0.000666667 OP000004T003
                - CAP0001BD00T003  = 0
 CAP0001T004:   0.1666667 OP000003T004 + 0.000666667 OP000004T004
                - CAP0001BD00T004  = 0
 CAP0001T005:   0.1666667 OP000003T005 + 0.000666667 OP000004T005
                - CAP0001BD00T005  = 0
 CAP0001T006:   0.1666667 OP000003T006 + 0.000666667 OP000004T006
                - CAP0001BD00T006  = 0
 CAP0001T007:   0.1666667 OP000003T007 + 0.000666667 OP000004T007
                - CAP0001BD00T007  = 0
 BAL000004T001: OP000003T001 - XBAL000004T001  = 0
 BAL000004T002: OP000003T002 + XBAL000004T001 - XBAL000004T002  = 0
 BAL000004T003: - AMT00000200002001 + OP000003T003 + XBAL000004T002
                - XBAL000004T003  = 0
 BAL000004T004: - AMT00000200001001 + OP000003T004 + XBAL000004T003
                - XBAL000004T004  = 0
 BAL000004T005: OP000003T005 + XBAL000004T004 - XBAL000004T005  = 0
 BAL000004T006: OP000003T006 + XBAL000004T005 - XBAL000004T006  = 0
 BAL000004T007: OP000003T007 + XBAL000004T006 - XBAL000004T007  = 0
 BAL000005T001: OP000004T001 - XBAL000005T001  = 0
 BAL000005T002: OP000004T002 + XBAL000005T001 - XBAL000005T002  = 0
 BAL000005T003: - AMT00000100002001 + OP000004T003 + XBAL000005T002
                - XBAL000005T003  = 0
 BAL000005T004: OP000004T004 + XBAL000005T003 - XBAL000005T004  = 0
 BAL000005T005: OP000004T005 + XBAL000005T004 - XBAL000005T005  = 0
 BAL000005T006: - AMT00000100001001 + OP000004T006 + XBAL000005T005
                - XBAL000005T006  = 0
 BAL000005T007: OP000004T007 + XBAL000005T006 - XBAL000005T007  = 0
Bounds
 0 <= AMT00000200002001 <= 3600
 0 <= AMT00000200001001 <= 3600
 0 <= AMT00000100002001 <= 2160
 0 <= AMT00000100001001 <= 2160
 0 <= CAP0001BD00T001 <= 36
 0 <= CAP0001BD00T002 <= 36
 0 <= CAP0001BD00T003 <= 36
 0 <= CAP0001BD00T004 <= 36
 0 <= CAP0001BD00T005 <= 36
 0 <= CAP0001BD00T006 <= 36
 0 <= CAP0001BD00T007 <= 36
End
